data;
param nombreJob := 7;
param nombreRessource := 3;
param duree := 1 1 2 10 3 4 4 1 5 2 6 3 7 9;
param capaciteRessource := 1 6 2 10 3 11;
param besoinRessource : 1 2 3 :=
                    1   2 7 1
                    2   3 4 8
                    3   4 1 8
                    4   2 4 1
                    5   4 3 8
                    6   2 8 5
                    7   1 4 6;
end;

